6
4
10
5 8 4 10 3 6 3 8 10 8
51 42 38 52 61 49
49 43 71 49 26 51
51 38 52 61 32 52
37 42 61 43 71 49
51 49 28 52 61 42
49 43 71 49 28 52
64 28 52 43 71 49
38 43 53 49 26 51
37 57 63 55 38 38
57 63 55 38 51 42
